18 9 
9 87 
29 63 
84 14 
96 81 
88 82 
10 42 
48 87 
42 56 
69 48 
69 64 
23 17 
62 76 
93 99 
69 85 
44 87 
95 6 
26 24 
21 11 
90 17 
92 30 
99 2 
24 99 
41 66 
55 11 
66 24 
75 89 
94 90 
17 39 
89 87 
76 85 
26 71 
43 53 
48 64 
64 90 
81 8 
21 33 
63 45 
84 4 
64 92 
67 30 
68 95 
72 62 
85 41 
53 26 
28 30 
11 7 
53 55 
12 1 
71 76 
